nNurses = 69;
nHours = 31;
minHours = 6;
maxHours = 14;
maxConsec = 9;
maxPresence = 20;
demand = [27, 26, 29, 32, 29, 24, 21, 22, 17, 12, 7, 10, 9, 11, 6, 5, 9, 14, 14, 9, 12, 11, 11, 10, 8, 7, 6, 7, 12, 7, 12];
